\ LP format - for model browsing. Use MPS format to capture full model detail.
Minimize
  0.5 g_01 + 0.5 g_02 + 0.5 g_03 + 0.5 g_04 + 0.5 g_10 + 0.5 g_12 + 0.5 g_13
   + 0.5 g_14 + 0.5 g_20 + 0.5 g_21 + 0.5 g_23 + 0.5 g_24 + 0.5 g_30
   + 0.5 g_31 + 0.5 g_32 + 0.5 g_34 + 0.5 g_40 + 0.5 g_41 + 0.5 g_42
   + 0.5 g_43 + g1surplus + g2slack
Subject To
 R0: - f_0 - f_1 + l_01 + l_10 + b_01 + b_10 >= -1
 R1: - f_0 - f_2 + l_02 + l_20 + b_02 + b_20 >= -1
 R2: - f_0 - f_3 + l_03 + l_30 + b_03 + b_30 >= -1
 R3: - f_0 - f_4 + l_04 + l_40 + b_04 + b_40 >= -1
 R4: - f_0 - f_1 + l_01 + l_10 + b_01 + b_10 >= -1
 R5: - f_1 - f_2 + l_12 + l_21 + b_12 + b_21 >= -1
 R6: - f_1 - f_3 + l_13 + l_31 + b_13 + b_31 >= -1
 R7: - f_1 - f_4 + l_14 + l_41 + b_14 + b_41 >= -1
 R8: - f_0 - f_2 + l_02 + l_20 + b_02 + b_20 >= -1
 R9: - f_1 - f_2 + l_12 + l_21 + b_12 + b_21 >= -1
 R10: - f_2 - f_3 + l_23 + l_32 + b_23 + b_32 >= -1
 R11: - f_2 - f_4 + l_24 + l_42 + b_24 + b_42 >= -1
 R12: - f_0 - f_3 + l_03 + l_30 + b_03 + b_30 >= -1
 R13: - f_1 - f_3 + l_13 + l_31 + b_13 + b_31 >= -1
 R14: - f_2 - f_3 + l_23 + l_32 + b_23 + b_32 >= -1
 R15: - f_3 - f_4 + l_34 + l_43 + b_34 + b_43 >= -1
 R16: - f_0 - f_4 + l_04 + l_40 + b_04 + b_40 >= -1
 R17: - f_1 - f_4 + l_14 + l_41 + b_14 + b_41 >= -1
 R18: - f_2 - f_4 + l_24 + l_42 + b_24 + b_42 >= -1
 R19: - f_3 - f_4 + l_34 + l_43 + b_34 + b_43 >= -1
 R20: x_0 - x_1 + 15 l_01 <= 9
 R21: x_0 - x_2 + 15 l_02 <= 9
 R22: x_0 - x_3 + 15 l_03 <= 9
 R23: x_0 - x_4 + 15 l_04 <= 9
 R24: - x_0 + x_1 + 15 l_10 <= 10
 R25: x_1 - x_2 + 15 l_12 <= 10
 R26: x_1 - x_3 + 15 l_13 <= 10
 R27: x_1 - x_4 + 15 l_14 <= 10
 R28: - x_0 + x_2 + 15 l_20 <= 10
 R29: - x_1 + x_2 + 15 l_21 <= 10
 R30: x_2 - x_3 + 15 l_23 <= 10
 R31: x_2 - x_4 + 15 l_24 <= 10
 R32: - x_0 + x_3 + 15 l_30 <= 11
 R33: - x_1 + x_3 + 15 l_31 <= 11
 R34: - x_2 + x_3 + 15 l_32 <= 11
 R35: x_3 - x_4 + 15 l_34 <= 11
 R36: - x_0 + x_4 + 15 l_40 <= 11
 R37: - x_1 + x_4 + 15 l_41 <= 11
 R38: - x_2 + x_4 + 15 l_42 <= 11
 R39: - x_3 + x_4 + 15 l_43 <= 11
 R40: y_0 - y_1 + 13 b_01 <= 8
 R41: y_0 - y_2 + 13 b_02 <= 8
 R42: y_0 - y_3 + 13 b_03 <= 8
 R43: y_0 - y_4 + 13 b_04 <= 8
 R44: - y_0 + y_1 + 13 b_10 <= 8
 R45: y_1 - y_2 + 13 b_12 <= 8
 R46: y_1 - y_3 + 13 b_13 <= 8
 R47: y_1 - y_4 + 13 b_14 <= 8
 R48: - y_0 + y_2 + 13 b_20 <= 7
 R49: - y_1 + y_2 + 13 b_21 <= 7
 R50: y_2 - y_3 + 13 b_23 <= 7
 R51: y_2 - y_4 + 13 b_24 <= 7
 R52: - y_0 + y_3 + 13 b_30 <= 9
 R53: - y_1 + y_3 + 13 b_31 <= 9
 R54: - y_2 + y_3 + 13 b_32 <= 9
 R55: y_3 - y_4 + 13 b_34 <= 9
 R56: - y_0 + y_4 + 13 b_40 <= 9
 R57: - y_1 + y_4 + 13 b_41 <= 9
 R58: - y_2 + y_4 + 13 b_42 <= 9
 R59: - y_3 + y_4 + 13 b_43 <= 9
 R60: x_0 >= 0
 R61: x_1 >= 0
 R62: x_2 >= 0
 R63: x_3 >= 0
 R64: x_4 >= 0
 R65: x_0 <= 9
 R66: x_1 <= 10
 R67: x_2 <= 10
 R68: x_3 <= 11
 R69: x_4 <= 11
 R70: y_0 >= 0
 R71: y_1 >= 0
 R72: y_2 >= 0
 R73: y_3 >= 0
 R74: y_4 >= 0
 R75: y_0 <= 8
 R76: y_1 <= 8
 R77: y_2 <= 7
 R78: y_3 <= 9
 R79: y_4 <= 9
 R80: - 30 f_0 - 25 f_1 - 30 f_2 - 16 f_3 - 16 f_4 - g1surplus + g1slack
   = -175
 R81: - 30 f_0 - 25 f_1 - 30 f_2 - 16 f_3 - 16 f_4 - g1surplus + g1slack
   = -175
 R82: - 30 f_0 - 25 f_1 - 30 f_2 - 16 f_3 - 16 f_4 - g1surplus + g1slack
   = -175
 R83: - 30 f_0 - 25 f_1 - 30 f_2 - 16 f_3 - 16 f_4 - g1surplus + g1slack
   = -175
 R84: - 30 f_0 - 25 f_1 - 30 f_2 - 16 f_3 - 16 f_4 - g1surplus + g1slack
   = -175
 R85: 16 f_0 + 12 f_1 + 12 f_2 + 8 f_3 + 8 f_4 - g2surplus + g2slack = 28
 R86: 16 f_0 + 12 f_1 + 12 f_2 + 8 f_3 + 8 f_4 - g2surplus + g2slack = 28
 R87: 16 f_0 + 12 f_1 + 12 f_2 + 8 f_3 + 8 f_4 - g2surplus + g2slack = 28
 R88: 16 f_0 + 12 f_1 + 12 f_2 + 8 f_3 + 8 f_4 - g2surplus + g2slack = 28
 R89: 16 f_0 + 12 f_1 + 12 f_2 + 8 f_3 + 8 f_4 - g2surplus + g2slack = 28
 R90: - f_0 - f_1 + g_01 >= -1
 R91: - f_0 - f_2 + g_02 >= -1
 R92: - f_0 - f_3 + g_03 >= -1
 R93: - f_0 - f_4 + g_04 >= -1
 R94: - f_0 - f_1 + g_10 >= -1
 R95: - f_1 - f_2 + g_12 >= -1
 R96: - f_1 - f_3 + g_13 >= -1
 R97: - f_1 - f_4 + g_14 >= -1
 R98: - f_0 - f_2 + g_20 >= -1
 R99: - f_1 - f_2 + g_21 >= -1
 R100: - f_2 - f_3 + g_23 >= -1
 R101: - f_2 - f_4 + g_24 >= -1
 R102: - f_0 - f_3 + g_30 >= -1
 R103: - f_1 - f_3 + g_31 >= -1
 R104: - f_2 - f_3 + g_32 >= -1
 R105: - f_3 - f_4 + g_34 >= -1
 R106: - f_0 - f_4 + g_40 >= -1
 R107: - f_1 - f_4 + g_41 >= -1
 R108: - f_2 - f_4 + g_42 >= -1
 R109: - f_3 - f_4 + g_43 >= -1
Bounds
Binaries
 f_0 f_1 f_2 f_3 f_4 l_01 l_02 l_03 l_04 l_10 l_12 l_13 l_14 l_20 l_21 l_23
 l_24 l_30 l_31 l_32 l_34 l_40 l_41 l_42 l_43 b_01 b_02 b_03 b_04 b_10 b_12
 b_13 b_14 b_20 b_21 b_23 b_24 b_30 b_31 b_32 b_34 b_40 b_41 b_42 b_43 g_01
 g_02 g_03 g_04 g_10 g_12 g_13 g_14 g_20 g_21 g_23 g_24 g_30 g_31 g_32 g_34
 g_40 g_41 g_42 g_43
End
